Traveling Salesman Problem/TSP_generados/Aleatorio1620390859_5.tsp
NAME: Aleatorio1620390859_5.tsp
COMMENT: Randomly generated scenario
TYPE: TSP
DIMENSION: 5
EDGE_WEIGHT_TYPE: ATT
NODE_COORD_SECTION
1 27.28 35.82
2 29.87 35.35
3 8.61 5.67
4 43.93 16.48
5 18.56 7.42
