Traveling Salesman Problem/TSP_generados/Aleatorio1620390859_5.opt.tour
NAME: Aleatorio1620390859_5.opt.tour
COMMENT: Optimal solution for Aleatorio1620390859_5 (98.66887335508241)
TYPE: TOUR
DIMENSION: 5
TOUR_SECTION
1 2 4 5 3
-1
EOF
